num_clientes = 5;
num_dias = 5;
num_plantas = 3;
min_porcent_demanda = 55;
reg_alto_dias = 3;
reg_alto_porcent = 85;
costo = [10, 15, 20];
capacidad = [500, 400, 350];
pago = [12, 17, 16, 15, 18];
demanda = [| 150,  200, 170, 165, 180
           | 160,  180, 190, 155, 170
           | 155, 205,  165, 160, 175
           | 150,  210, 175, 155, 180
           | 155,  195, 180, 165, 185
      |];